p cnf 23 10
a 1 0
e 2 3 0
a 4 5 6 0
e 7 8 9 10 0
a 11 0
e 12 0
a 13 14 0
e 15 0
a 16 17 0
e 18 0
a 19 0
e 20 21 0
a 22 0
e 23 0
-11 -3 6 -12 0
17 -12 -4 23 -10 0
-16 -2 22 -15 -1 0
-17 9 -19 0
21 -15 -8 0
1 11 -8 2 18 0
-8 18 -13 20 0
-14 -2 22 3 9 0
-6 7 14 0
13 -19 -8 0
